(set-info :smt-lib-version 2.6)
(set-info :category "crafted")
(set-logic QF_FFA)
(define-sort FF0 () (_ FiniteField 52435875175126190479447740508185965837690552500527637822603658699938581184513))
(declare-fun mul_n85_alt () FF0)
(declare-fun mul_n52_alt () FF0)
(declare-fun mul_n68_alt () FF0)
(declare-fun mul_n84_alt () FF0)
(declare-fun mul_n69_alt () FF0)
(declare-fun mul_n83_alt () FF0)
(declare-fun mul_n30_alt () FF0)
(declare-fun mul_n70_alt () FF0)
(declare-fun mul_n82_alt () FF0)
(declare-fun mul_n75_alt () FF0)
(declare-fun mul_n81_alt () FF0)
(declare-fun f_n1_alt () FF0)
(declare-fun mul_n34_alt () FF0)
(declare-fun mul_n33_alt () FF0)
(declare-fun mul_n80_alt () FF0)
(declare-fun mul_n57_alt () FF0)
(declare-fun mul_n79_alt () FF0)
(declare-fun e_n2_alt () FF0)
(declare-fun mul_n78_alt () FF0)
(declare-fun mul_n76_alt () FF0)
(declare-fun mul_n77_alt () FF0)
(declare-fun mul_n51_alt () FF0)
(declare-fun mul_n66_alt () FF0)
(declare-fun mul_n53_alt () FF0)
(declare-fun mul_n45_alt () FF0)
(declare-fun mul_n28_alt () FF0)
(declare-fun mul_n74_alt () FF0)
(declare-fun mul_n73_alt () FF0)
(declare-fun mul_n72_alt () FF0)
(declare-fun mul_n67_alt () FF0)
(declare-fun mul_n71_alt () FF0)
(declare-fun mul_n65_alt () FF0)
(declare-fun mul_n9_alt () FF0)
(declare-fun mul_n17_alt () FF0)
(declare-fun mul_n58_alt () FF0)
(declare-fun mul_n64_alt () FF0)
(declare-fun mul_n63_alt () FF0)
(declare-fun c_n4_alt () FF0)
(declare-fun mul_n62_alt () FF0)
(declare-fun mul_n61_alt () FF0)
(declare-fun mul_n60_alt () FF0)
(declare-fun mul_n59_alt () FF0)
(declare-fun h_n5_alt () FF0)
(declare-fun mul_n56_alt () FF0)
(declare-fun mul_n14_alt () FF0)
(declare-fun mul_n55_alt () FF0)
(declare-fun mul_n54_alt () FF0)
(declare-fun mul_n15_alt () FF0)
(declare-fun a_n8_alt () FF0)
(declare-fun mul_n50_alt () FF0)
(declare-fun mul_n16_alt () FF0)
(declare-fun mul_n49_alt () FF0)
(declare-fun mul_n48_alt () FF0)
(declare-fun mul_n47_alt () FF0)
(declare-fun mul_n46_alt () FF0)
(declare-fun mul_n44_alt () FF0)
(declare-fun mul_n43_alt () FF0)
(declare-fun mul_n42_alt () FF0)
(declare-fun mul_n41_alt () FF0)
(declare-fun mul_n40_alt () FF0)
(declare-fun mul_n39_alt () FF0)
(declare-fun b_n6_alt () FF0)
(declare-fun mul_n38_alt () FF0)
(declare-fun mul_n37_alt () FF0)
(declare-fun mul_n36_alt () FF0)
(declare-fun mul_n35_alt () FF0)
(declare-fun g_n7_alt () FF0)
(declare-fun mul_n32_alt () FF0)
(declare-fun mul_n31_alt () FF0)
(declare-fun mul_n29_alt () FF0)
(declare-fun mul_n27_alt () FF0)
(declare-fun mul_n26_alt () FF0)
(declare-fun mul_n25_alt () FF0)
(declare-fun mul_n24_alt () FF0)
(declare-fun mul_n23_alt () FF0)
(declare-fun mul_n22_alt () FF0)
(declare-fun mul_n21_alt () FF0)
(declare-fun d_n3_alt () FF0)
(declare-fun mul_n20_alt () FF0)
(declare-fun mul_n19_alt () FF0)
(declare-fun mul_n18_alt () FF0)
(declare-fun mul_n13_alt () FF0)
(declare-fun mul_n12_alt () FF0)
(declare-fun mul_n11_alt () FF0)
(declare-fun mul_n10_alt () FF0)
(declare-fun mul_n85 () FF0)
(declare-fun mul_n52 () FF0)
(declare-fun mul_n68 () FF0)
(declare-fun mul_n84 () FF0)
(declare-fun mul_n69 () FF0)
(declare-fun mul_n83 () FF0)
(declare-fun mul_n30 () FF0)
(declare-fun mul_n70 () FF0)
(declare-fun mul_n82 () FF0)
(declare-fun mul_n75 () FF0)
(declare-fun mul_n81 () FF0)
(declare-fun f_n1 () FF0)
(declare-fun mul_n34 () FF0)
(declare-fun mul_n33 () FF0)
(declare-fun mul_n80 () FF0)
(declare-fun mul_n57 () FF0)
(declare-fun mul_n79 () FF0)
(declare-fun e_n2 () FF0)
(declare-fun mul_n78 () FF0)
(declare-fun mul_n76 () FF0)
(declare-fun mul_n77 () FF0)
(declare-fun mul_n51 () FF0)
(declare-fun mul_n66 () FF0)
(declare-fun mul_n53 () FF0)
(declare-fun mul_n45 () FF0)
(declare-fun mul_n28 () FF0)
(declare-fun mul_n74 () FF0)
(declare-fun mul_n73 () FF0)
(declare-fun mul_n72 () FF0)
(declare-fun mul_n67 () FF0)
(declare-fun mul_n71 () FF0)
(declare-fun mul_n65 () FF0)
(declare-fun mul_n9 () FF0)
(declare-fun mul_n17 () FF0)
(declare-fun mul_n58 () FF0)
(declare-fun mul_n64 () FF0)
(declare-fun mul_n63 () FF0)
(declare-fun c_n4 () FF0)
(declare-fun mul_n62 () FF0)
(declare-fun mul_n61 () FF0)
(declare-fun mul_n60 () FF0)
(declare-fun mul_n59 () FF0)
(declare-fun h_n5 () FF0)
(declare-fun mul_n56 () FF0)
(declare-fun mul_n14 () FF0)
(declare-fun mul_n55 () FF0)
(declare-fun mul_n54 () FF0)
(declare-fun mul_n15 () FF0)
(declare-fun a_n8 () FF0)
(declare-fun mul_n50 () FF0)
(declare-fun mul_n16 () FF0)
(declare-fun mul_n49 () FF0)
(declare-fun mul_n48 () FF0)
(declare-fun mul_n47 () FF0)
(declare-fun mul_n46 () FF0)
(declare-fun mul_n44 () FF0)
(declare-fun mul_n43 () FF0)
(declare-fun mul_n42 () FF0)
(declare-fun mul_n41 () FF0)
(declare-fun mul_n40 () FF0)
(declare-fun mul_n39 () FF0)
(declare-fun b_n6 () FF0)
(declare-fun mul_n38 () FF0)
(declare-fun mul_n37 () FF0)
(declare-fun mul_n36 () FF0)
(declare-fun mul_n35 () FF0)
(declare-fun g_n7 () FF0)
(declare-fun mul_n32 () FF0)
(declare-fun mul_n31 () FF0)
(declare-fun mul_n29 () FF0)
(declare-fun mul_n27 () FF0)
(declare-fun mul_n26 () FF0)
(declare-fun mul_n25 () FF0)
(declare-fun mul_n24 () FF0)
(declare-fun mul_n23 () FF0)
(declare-fun mul_n22 () FF0)
(declare-fun mul_n21 () FF0)
(declare-fun d_n3 () FF0)
(declare-fun mul_n20 () FF0)
(declare-fun mul_n19 () FF0)
(declare-fun mul_n18 () FF0)
(declare-fun mul_n13 () FF0)
(declare-fun mul_n12 () FF0)
(declare-fun mul_n11 () FF0)
(declare-fun mul_n10 () FF0)
(declare-fun return_n0_alt () FF0)
(declare-fun return_n0 () FF0)
(assert 
  (let ((let0 mul_n85_alt))
  (let ((let1 mul_n52_alt))
  (let ((let2 (as ff52435875175126190479447740508185965837690552500527637822603658699938581184512 FF0)))
  (let ((let3 mul_n68_alt))
  (let ((let4 (ff.mul let3 let2)))
  (let ((let5 (ff.add let4 let1)))
  (let ((let6 mul_n84_alt))
  (let ((let7 (ff.mul let6 let5)))
  (let ((let8 (= let7 let0)))
  (let ((let9 mul_n69_alt))
  (let ((let10 mul_n83_alt))
  (let ((let11 (ff.mul let10 let9)))
  (let ((let12 (= let11 let6)))
  (let ((let13 (as ff1 FF0)))
  (let ((let14 mul_n30_alt))
  (let ((let15 (ff.mul let14 let2)))
  (let ((let16 mul_n70_alt))
  (let ((let17 (ff.mul let16 let2)))
  (let ((let18 (ff.add let17 let15 let13)))
  (let ((let19 mul_n82_alt))
  (let ((let20 (ff.mul let19 let18)))
  (let ((let21 (= let20 let10)))
  (let ((let22 mul_n75_alt))
  (let ((let23 mul_n81_alt))
  (let ((let24 (ff.mul let23 let2)))
  (let ((let25 (ff.add let24 let13)))
  (let ((let26 (ff.mul let25 let22)))
  (let ((let27 (= let26 let19)))
  (let ((let28 f_n1_alt))
  (let ((let29 (ff.mul let28 let2)))
  (let ((let30 mul_n34_alt))
  (let ((let31 mul_n33_alt))
  (let ((let32 (ff.add let31 let30 let29)))
  (let ((let33 mul_n80_alt))
  (let ((let34 (ff.mul let33 let32)))
  (let ((let35 (= let34 let23)))
  (let ((let36 mul_n57_alt))
  (let ((let37 mul_n79_alt))
  (let ((let38 (ff.mul let37 let36)))
  (let ((let39 (= let38 let33)))
  (let ((let40 e_n2_alt))
  (let ((let41 mul_n78_alt))
  (let ((let42 (ff.mul let41 let40)))
  (let ((let43 (= let42 let37)))
  (let ((let44 mul_n76_alt))
  (let ((let45 (ff.mul let44 let2)))
  (let ((let46 (ff.add let45 let13)))
  (let ((let47 mul_n77_alt))
  (let ((let48 (ff.mul let47 let46)))
  (let ((let49 (= let48 let41)))
  (let ((let50 mul_n51_alt))
  (let ((let51 mul_n66_alt))
  (let ((let52 mul_n53_alt))
  (let ((let53 (ff.add let52 let51 let40 let50 let2)))
  (let ((let54 mul_n45_alt))
  (let ((let55 (ff.mul let54 let2)))
  (let ((let56 (ff.add let55 let13)))
  (let ((let57 (ff.mul let56 let53)))
  (let ((let58 (= let57 let47)))
  (let ((let59 mul_n28_alt))
  (let ((let60 (ff.mul let59 let2)))
  (let ((let61 (ff.add let60 let13)))
  (let ((let62 (ff.mul let14 let61)))
  (let ((let63 (= let62 let44)))
  (let ((let64 mul_n74_alt))
  (let ((let65 (ff.mul let64 let56)))
  (let ((let66 (= let65 let22)))
  (let ((let67 mul_n73_alt))
  (let ((let68 (ff.mul let67 let31)))
  (let ((let69 (= let68 let64)))
  (let ((let70 (ff.mul let50 let2)))
  (let ((let71 (ff.add let70 let13)))
  (let ((let72 mul_n72_alt))
  (let ((let73 (ff.mul let72 let71)))
  (let ((let74 (= let73 let67)))
  (let ((let75 mul_n67_alt))
  (let ((let76 mul_n71_alt))
  (let ((let77 (ff.mul let76 let75)))
  (let ((let78 (= let77 let72)))
  (let ((let79 (as ff2 FF0)))
  (let ((let80 (ff.mul let40 let2)))
  (let ((let81 (ff.mul let51 let2)))
  (let ((let82 (ff.mul let52 let2)))
  (let ((let83 (ff.add let82 let81 let80 let70 let79)))
  (let ((let84 (ff.mul let50 let83)))
  (let ((let85 (= let84 let76)))
  (let ((let86 (ff.mul let36 let2)))
  (let ((let87 (ff.add let86 let15 let13)))
  (let ((let88 mul_n65_alt))
  (let ((let89 (ff.mul let88 let87)))
  (let ((let90 (= let89 let16)))
  (let ((let91 (ff.mul let30 let2)))
  (let ((let92 (ff.mul let31 let2)))
  (let ((let93 (ff.add let92 let91 let28 let13)))
  (let ((let94 mul_n9_alt))
  (let ((let95 (ff.mul let94 let93)))
  (let ((let96 (= let95 let9)))
  (let ((let97 (ff.add let1 let88 let2)))
  (let ((let98 (ff.mul let75 let2)))
  (let ((let99 (ff.add let98 let13)))
  (let ((let100 (ff.mul let99 let97)))
  (let ((let101 (= let100 let3)))
  (let ((let102 mul_n17_alt))
  (let ((let103 (ff.mul let102 let83)))
  (let ((let104 (= let103 let75)))
  (let ((let105 mul_n58_alt))
  (let ((let106 (ff.add let82 let105 let80 let36 let94 let70)))
  (let ((let107 (ff.mul let88 let106)))
  (let ((let108 (= let107 let51)))
  (let ((let109 (ff.add let52 let40 let50 let2)))
  (let ((let110 mul_n64_alt))
  (let ((let111 (ff.mul let110 let109)))
  (let ((let112 (= let111 let88)))
  (let ((let113 (ff.add let36 let105 let94 let2)))
  (let ((let114 mul_n63_alt))
  (let ((let115 (ff.mul let114 let113)))
  (let ((let116 (= let115 let110)))
  (let ((let117 c_n4_alt))
  (let ((let118 mul_n62_alt))
  (let ((let119 (ff.mul let118 let117)))
  (let ((let120 (= let119 let114)))
  (let ((let121 mul_n61_alt))
  (let ((let122 (ff.mul let121 let56)))
  (let ((let123 (= let122 let118)))
  (let ((let124 mul_n60_alt))
  (let ((let125 (ff.mul let124 let50)))
  (let ((let126 (= let125 let121)))
  (let ((let127 mul_n59_alt))
  (let ((let128 (ff.mul let127 let32)))
  (let ((let129 (= let128 let124)))
  (let ((let130 (ff.mul let1 let2)))
  (let ((let131 (ff.add let130 let13)))
  (let ((let132 (ff.mul let56 let131)))
  (let ((let133 (= let132 let127)))
  (let ((let134 (ff.mul let94 let2)))
  (let ((let135 (ff.add let134 let13)))
  (let ((let136 (as ff52435875175126190479447740508185965837690552500527637822603658699938581184511 FF0)))
  (let ((let137 (ff.mul let36 let136)))
  (let ((let138 (ff.add let137 let79)))
  (let ((let139 (ff.mul let138 let135)))
  (let ((let140 (= let139 let105)))
  (let ((let141 h_n5_alt))
  (let ((let142 (ff.mul let141 let2)))
  (let ((let143 (ff.add let142 let13)))
  (let ((let144 mul_n56_alt))
  (let ((let145 (ff.mul let144 let143)))
  (let ((let146 (= let145 let36)))
  (let ((let147 mul_n14_alt))
  (let ((let148 mul_n55_alt))
  (let ((let149 (ff.mul let148 let147)))
  (let ((let150 (= let149 let144)))
  (let ((let151 (ff.add let82 let80 let70 let79)))
  (let ((let152 mul_n54_alt))
  (let ((let153 (ff.mul let152 let151)))
  (let ((let154 (= let153 let148)))
  (let ((let155 (ff.mul let117 let2)))
  (let ((let156 (ff.add let155 let13)))
  (let ((let157 mul_n15_alt))
  (let ((let158 (ff.mul let157 let156)))
  (let ((let159 (= let158 let152)))
  (let ((let160 (ff.add let80 let13)))
  (let ((let161 (ff.mul let50 let136)))
  (let ((let162 (ff.add let161 let79)))
  (let ((let163 (ff.mul let162 let160)))
  (let ((let164 (= let163 let52)))
  (let ((let165 a_n8_alt))
  (let ((let166 (ff.mul let165 let2)))
  (let ((let167 (ff.add let166 let13)))
  (let ((let168 (ff.mul let167 let71)))
  (let ((let169 (= let168 let1)))
  (let ((let170 mul_n50_alt))
  (let ((let171 (ff.mul let170 let147)))
  (let ((let172 (= let171 let50)))
  (let ((let173 mul_n16_alt))
  (let ((let174 mul_n49_alt))
  (let ((let175 (ff.mul let174 let173)))
  (let ((let176 (= let175 let170)))
  (let ((let177 (ff.add let29 let13)))
  (let ((let178 mul_n48_alt))
  (let ((let179 (ff.mul let178 let177)))
  (let ((let180 (= let179 let174)))
  (let ((let181 mul_n47_alt))
  (let ((let182 (ff.mul let181 let56)))
  (let ((let183 (= let182 let178)))
  (let ((let184 mul_n46_alt))
  (let ((let185 (ff.mul let184 let157)))
  (let ((let186 (= let185 let181)))
  (let ((let187 (ff.mul let56 let160)))
  (let ((let188 (= let187 let184)))
  (let ((let189 (ff.mul let102 let2)))
  (let ((let190 (ff.add let189 let13)))
  (let ((let191 mul_n44_alt))
  (let ((let192 (ff.mul let191 let190)))
  (let ((let193 (= let192 let54)))
  (let ((let194 mul_n43_alt))
  (let ((let195 (ff.mul let194 let135)))
  (let ((let196 (= let195 let191)))
  (let ((let197 mul_n42_alt))
  (let ((let198 (ff.mul let197 let135)))
  (let ((let199 (= let198 let194)))
  (let ((let200 mul_n41_alt))
  (let ((let201 (ff.mul let200 let14)))
  (let ((let202 (= let201 let197)))
  (let ((let203 (ff.add let92 let13)))
  (let ((let204 mul_n40_alt))
  (let ((let205 (ff.mul let204 let203)))
  (let ((let206 (= let205 let200)))
  (let ((let207 mul_n39_alt))
  (let ((let208 (ff.mul let207 let190)))
  (let ((let209 (= let208 let204)))
  (let ((let210 b_n6_alt))
  (let ((let211 mul_n38_alt))
  (let ((let212 (ff.mul let211 let210)))
  (let ((let213 (= let212 let207)))
  (let ((let214 mul_n37_alt))
  (let ((let215 (ff.mul let214 let203)))
  (let ((let216 (= let215 let211)))
  (let ((let217 mul_n36_alt))
  (let ((let218 (ff.mul let217 let210)))
  (let ((let219 (= let218 let214)))
  (let ((let220 mul_n35_alt))
  (let ((let221 (ff.mul let220 let32)))
  (let ((let222 (= let221 let217)))
  (let ((let223 (ff.mul let94 let165)))
  (let ((let224 (= let223 let220)))
  (let ((let225 (ff.mul let31 let136)))
  (let ((let226 (ff.add let225 let79)))
  (let ((let227 (ff.mul let226 let28)))
  (let ((let228 (= let227 let30)))
  (let ((let229 g_n7_alt))
  (let ((let230 (ff.mul let229 let2)))
  (let ((let231 (ff.add let230 let13)))
  (let ((let232 mul_n32_alt))
  (let ((let233 (ff.mul let232 let231)))
  (let ((let234 (= let233 let31)))
  (let ((let235 (ff.add let15 let13)))
  (let ((let236 mul_n31_alt))
  (let ((let237 (ff.mul let236 let235)))
  (let ((let238 (= let237 let232)))
  (let ((let239 (ff.mul let61 let156)))
  (let ((let240 (= let239 let236)))
  (let ((let241 mul_n29_alt))
  (let ((let242 (ff.mul let241 let59)))
  (let ((let243 (= let242 let14)))
  (let ((let244 (ff.mul let173 let2)))
  (let ((let245 (ff.add let244 let13)))
  (let ((let246 (ff.mul let94 let245)))
  (let ((let247 (= let246 let241)))
  (let ((let248 mul_n27_alt))
  (let ((let249 (ff.mul let248 let160)))
  (let ((let250 (= let249 let59)))
  (let ((let251 mul_n26_alt))
  (let ((let252 (ff.mul let251 let28)))
  (let ((let253 (= let252 let248)))
  (let ((let254 mul_n25_alt))
  (let ((let255 (ff.mul let254 let229)))
  (let ((let256 (= let255 let251)))
  (let ((let257 mul_n24_alt))
  (let ((let258 (ff.mul let257 let210)))
  (let ((let259 (= let258 let254)))
  (let ((let260 (ff.mul let147 let2)))
  (let ((let261 (ff.add let260 let13)))
  (let ((let262 mul_n23_alt))
  (let ((let263 (ff.mul let262 let261)))
  (let ((let264 (= let263 let257)))
  (let ((let265 mul_n22_alt))
  (let ((let266 (ff.mul let265 let117)))
  (let ((let267 (= let266 let262)))
  (let ((let268 mul_n21_alt))
  (let ((let269 (ff.mul let268 let165)))
  (let ((let270 (= let269 let265)))
  (let ((let271 d_n3_alt))
  (let ((let272 mul_n20_alt))
  (let ((let273 (ff.mul let272 let271)))
  (let ((let274 (= let273 let268)))
  (let ((let275 mul_n19_alt))
  (let ((let276 (ff.mul let275 let141)))
  (let ((let277 (= let276 let272)))
  (let ((let278 mul_n18_alt))
  (let ((let279 (ff.mul let278 let160)))
  (let ((let280 (= let279 let275)))
  (let ((let281 (ff.mul let157 let2)))
  (let ((let282 (ff.add let281 let13)))
  (let ((let283 (ff.mul let282 let28)))
  (let ((let284 (= let283 let278)))
  (let ((let285 (ff.mul let245 let143)))
  (let ((let286 (= let285 let102)))
  (let ((let287 (ff.mul let261 let157)))
  (let ((let288 (= let287 let173)))
  (let ((let289 (ff.mul let271 let2)))
  (let ((let290 (ff.add let289 let13)))
  (let ((let291 (ff.mul let229 let290)))
  (let ((let292 (= let291 let157)))
  (let ((let293 mul_n13_alt))
  (let ((let294 (ff.mul let293 let160)))
  (let ((let295 (= let294 let147)))
  (let ((let296 mul_n12_alt))
  (let ((let297 (ff.mul let296 let167)))
  (let ((let298 (= let297 let293)))
  (let ((let299 (ff.mul let210 let2)))
  (let ((let300 (ff.add let299 let13)))
  (let ((let301 (ff.mul let300 let156)))
  (let ((let302 (= let301 let296)))
  (let ((let303 mul_n11_alt))
  (let ((let304 mul_n10_alt))
  (let ((let305 (ff.add let94 let304 let289)))
  (let ((let306 (ff.mul let305 let40)))
  (let ((let307 (= let306 let303)))
  (let ((let308 (ff.mul let271 let79)))
  (let ((let309 (ff.mul let308 let135)))
  (let ((let310 (= let309 let304)))
  (let ((let311 (ff.mul let271 let141)))
  (let ((let312 (= let311 let94)))
  (let ((let313 (and let312 let310 let307 let302 let298 let295 let292 let288 let286 let284 let280 let277 let274 let270 let267 let264 let259 let256 let253 let250 let247 let243 let240 let238 let234 let228 let224 let222 let219 let216 let213 let209 let206 let202 let199 let196 let193 let188 let186 let183 let180 let176 let172 let169 let164 let159 let154 let150 let146 let140 let133 let129 let126 let123 let120 let116 let112 let108 let104 let101 let96 let90 let85 let78 let74 let69 let66 let63 let58 let49 let43 let39 let35 let27 let21 let12 let8)))
  (let ((let314 mul_n85))
  (let ((let315 mul_n52))
  (let ((let316 mul_n68))
  (let ((let317 (ff.mul let316 let2)))
  (let ((let318 (ff.add let317 let315)))
  (let ((let319 mul_n84))
  (let ((let320 (ff.mul let319 let318)))
  (let ((let321 (= let320 let314)))
  (let ((let322 mul_n69))
  (let ((let323 mul_n83))
  (let ((let324 (ff.mul let323 let322)))
  (let ((let325 (= let324 let319)))
  (let ((let326 mul_n30))
  (let ((let327 (ff.mul let326 let2)))
  (let ((let328 mul_n70))
  (let ((let329 (ff.mul let328 let2)))
  (let ((let330 (ff.add let329 let327 let13)))
  (let ((let331 mul_n82))
  (let ((let332 (ff.mul let331 let330)))
  (let ((let333 (= let332 let323)))
  (let ((let334 mul_n75))
  (let ((let335 mul_n81))
  (let ((let336 (ff.mul let335 let2)))
  (let ((let337 (ff.add let336 let13)))
  (let ((let338 (ff.mul let337 let334)))
  (let ((let339 (= let338 let331)))
  (let ((let340 f_n1))
  (let ((let341 (ff.mul let340 let2)))
  (let ((let342 mul_n34))
  (let ((let343 mul_n33))
  (let ((let344 (ff.add let343 let342 let341)))
  (let ((let345 mul_n80))
  (let ((let346 (ff.mul let345 let344)))
  (let ((let347 (= let346 let335)))
  (let ((let348 mul_n57))
  (let ((let349 mul_n79))
  (let ((let350 (ff.mul let349 let348)))
  (let ((let351 (= let350 let345)))
  (let ((let352 e_n2))
  (let ((let353 mul_n78))
  (let ((let354 (ff.mul let353 let352)))
  (let ((let355 (= let354 let349)))
  (let ((let356 mul_n76))
  (let ((let357 (ff.mul let356 let2)))
  (let ((let358 (ff.add let357 let13)))
  (let ((let359 mul_n77))
  (let ((let360 (ff.mul let359 let358)))
  (let ((let361 (= let360 let353)))
  (let ((let362 mul_n51))
  (let ((let363 mul_n66))
  (let ((let364 mul_n53))
  (let ((let365 (ff.add let364 let363 let352 let362 let2)))
  (let ((let366 mul_n45))
  (let ((let367 (ff.mul let366 let2)))
  (let ((let368 (ff.add let367 let13)))
  (let ((let369 (ff.mul let368 let365)))
  (let ((let370 (= let369 let359)))
  (let ((let371 mul_n28))
  (let ((let372 (ff.mul let371 let2)))
  (let ((let373 (ff.add let372 let13)))
  (let ((let374 (ff.mul let326 let373)))
  (let ((let375 (= let374 let356)))
  (let ((let376 mul_n74))
  (let ((let377 (ff.mul let376 let368)))
  (let ((let378 (= let377 let334)))
  (let ((let379 mul_n73))
  (let ((let380 (ff.mul let379 let343)))
  (let ((let381 (= let380 let376)))
  (let ((let382 (ff.mul let362 let2)))
  (let ((let383 (ff.add let382 let13)))
  (let ((let384 mul_n72))
  (let ((let385 (ff.mul let384 let383)))
  (let ((let386 (= let385 let379)))
  (let ((let387 mul_n67))
  (let ((let388 mul_n71))
  (let ((let389 (ff.mul let388 let387)))
  (let ((let390 (= let389 let384)))
  (let ((let391 (ff.mul let352 let2)))
  (let ((let392 (ff.mul let363 let2)))
  (let ((let393 (ff.mul let364 let2)))
  (let ((let394 (ff.add let393 let392 let391 let382 let79)))
  (let ((let395 (ff.mul let362 let394)))
  (let ((let396 (= let395 let388)))
  (let ((let397 (ff.mul let348 let2)))
  (let ((let398 (ff.add let397 let327 let13)))
  (let ((let399 mul_n65))
  (let ((let400 (ff.mul let399 let398)))
  (let ((let401 (= let400 let328)))
  (let ((let402 (ff.mul let342 let2)))
  (let ((let403 (ff.mul let343 let2)))
  (let ((let404 (ff.add let403 let402 let340 let13)))
  (let ((let405 mul_n9))
  (let ((let406 (ff.mul let405 let404)))
  (let ((let407 (= let406 let322)))
  (let ((let408 (ff.add let315 let399 let2)))
  (let ((let409 (ff.mul let387 let2)))
  (let ((let410 (ff.add let409 let13)))
  (let ((let411 (ff.mul let410 let408)))
  (let ((let412 (= let411 let316)))
  (let ((let413 mul_n17))
  (let ((let414 (ff.mul let413 let394)))
  (let ((let415 (= let414 let387)))
  (let ((let416 mul_n58))
  (let ((let417 (ff.add let393 let416 let391 let348 let405 let382)))
  (let ((let418 (ff.mul let399 let417)))
  (let ((let419 (= let418 let363)))
  (let ((let420 (ff.add let364 let352 let362 let2)))
  (let ((let421 mul_n64))
  (let ((let422 (ff.mul let421 let420)))
  (let ((let423 (= let422 let399)))
  (let ((let424 (ff.add let348 let416 let405 let2)))
  (let ((let425 mul_n63))
  (let ((let426 (ff.mul let425 let424)))
  (let ((let427 (= let426 let421)))
  (let ((let428 c_n4))
  (let ((let429 mul_n62))
  (let ((let430 (ff.mul let429 let428)))
  (let ((let431 (= let430 let425)))
  (let ((let432 mul_n61))
  (let ((let433 (ff.mul let432 let368)))
  (let ((let434 (= let433 let429)))
  (let ((let435 mul_n60))
  (let ((let436 (ff.mul let435 let362)))
  (let ((let437 (= let436 let432)))
  (let ((let438 mul_n59))
  (let ((let439 (ff.mul let438 let344)))
  (let ((let440 (= let439 let435)))
  (let ((let441 (ff.mul let315 let2)))
  (let ((let442 (ff.add let441 let13)))
  (let ((let443 (ff.mul let368 let442)))
  (let ((let444 (= let443 let438)))
  (let ((let445 (ff.mul let405 let2)))
  (let ((let446 (ff.add let445 let13)))
  (let ((let447 (ff.mul let348 let136)))
  (let ((let448 (ff.add let447 let79)))
  (let ((let449 (ff.mul let448 let446)))
  (let ((let450 (= let449 let416)))
  (let ((let451 h_n5))
  (let ((let452 (ff.mul let451 let2)))
  (let ((let453 (ff.add let452 let13)))
  (let ((let454 mul_n56))
  (let ((let455 (ff.mul let454 let453)))
  (let ((let456 (= let455 let348)))
  (let ((let457 mul_n14))
  (let ((let458 mul_n55))
  (let ((let459 (ff.mul let458 let457)))
  (let ((let460 (= let459 let454)))
  (let ((let461 (ff.add let393 let391 let382 let79)))
  (let ((let462 mul_n54))
  (let ((let463 (ff.mul let462 let461)))
  (let ((let464 (= let463 let458)))
  (let ((let465 (ff.mul let428 let2)))
  (let ((let466 (ff.add let465 let13)))
  (let ((let467 mul_n15))
  (let ((let468 (ff.mul let467 let466)))
  (let ((let469 (= let468 let462)))
  (let ((let470 (ff.add let391 let13)))
  (let ((let471 (ff.mul let362 let136)))
  (let ((let472 (ff.add let471 let79)))
  (let ((let473 (ff.mul let472 let470)))
  (let ((let474 (= let473 let364)))
  (let ((let475 a_n8))
  (let ((let476 (ff.mul let475 let2)))
  (let ((let477 (ff.add let476 let13)))
  (let ((let478 (ff.mul let477 let383)))
  (let ((let479 (= let478 let315)))
  (let ((let480 mul_n50))
  (let ((let481 (ff.mul let480 let457)))
  (let ((let482 (= let481 let362)))
  (let ((let483 mul_n16))
  (let ((let484 mul_n49))
  (let ((let485 (ff.mul let484 let483)))
  (let ((let486 (= let485 let480)))
  (let ((let487 (ff.add let341 let13)))
  (let ((let488 mul_n48))
  (let ((let489 (ff.mul let488 let487)))
  (let ((let490 (= let489 let484)))
  (let ((let491 mul_n47))
  (let ((let492 (ff.mul let491 let368)))
  (let ((let493 (= let492 let488)))
  (let ((let494 mul_n46))
  (let ((let495 (ff.mul let494 let467)))
  (let ((let496 (= let495 let491)))
  (let ((let497 (ff.mul let368 let470)))
  (let ((let498 (= let497 let494)))
  (let ((let499 (ff.mul let413 let2)))
  (let ((let500 (ff.add let499 let13)))
  (let ((let501 mul_n44))
  (let ((let502 (ff.mul let501 let500)))
  (let ((let503 (= let502 let366)))
  (let ((let504 mul_n43))
  (let ((let505 (ff.mul let504 let446)))
  (let ((let506 (= let505 let501)))
  (let ((let507 mul_n42))
  (let ((let508 (ff.mul let507 let446)))
  (let ((let509 (= let508 let504)))
  (let ((let510 mul_n41))
  (let ((let511 (ff.mul let510 let326)))
  (let ((let512 (= let511 let507)))
  (let ((let513 (ff.add let403 let13)))
  (let ((let514 mul_n40))
  (let ((let515 (ff.mul let514 let513)))
  (let ((let516 (= let515 let510)))
  (let ((let517 mul_n39))
  (let ((let518 (ff.mul let517 let500)))
  (let ((let519 (= let518 let514)))
  (let ((let520 b_n6))
  (let ((let521 mul_n38))
  (let ((let522 (ff.mul let521 let520)))
  (let ((let523 (= let522 let517)))
  (let ((let524 mul_n37))
  (let ((let525 (ff.mul let524 let513)))
  (let ((let526 (= let525 let521)))
  (let ((let527 mul_n36))
  (let ((let528 (ff.mul let527 let520)))
  (let ((let529 (= let528 let524)))
  (let ((let530 mul_n35))
  (let ((let531 (ff.mul let530 let344)))
  (let ((let532 (= let531 let527)))
  (let ((let533 (ff.mul let405 let475)))
  (let ((let534 (= let533 let530)))
  (let ((let535 (ff.mul let343 let136)))
  (let ((let536 (ff.add let535 let79)))
  (let ((let537 (ff.mul let536 let340)))
  (let ((let538 (= let537 let342)))
  (let ((let539 g_n7))
  (let ((let540 (ff.mul let539 let2)))
  (let ((let541 (ff.add let540 let13)))
  (let ((let542 mul_n32))
  (let ((let543 (ff.mul let542 let541)))
  (let ((let544 (= let543 let343)))
  (let ((let545 (ff.add let327 let13)))
  (let ((let546 mul_n31))
  (let ((let547 (ff.mul let546 let545)))
  (let ((let548 (= let547 let542)))
  (let ((let549 (ff.mul let373 let466)))
  (let ((let550 (= let549 let546)))
  (let ((let551 mul_n29))
  (let ((let552 (ff.mul let551 let371)))
  (let ((let553 (= let552 let326)))
  (let ((let554 (ff.mul let483 let2)))
  (let ((let555 (ff.add let554 let13)))
  (let ((let556 (ff.mul let405 let555)))
  (let ((let557 (= let556 let551)))
  (let ((let558 mul_n27))
  (let ((let559 (ff.mul let558 let470)))
  (let ((let560 (= let559 let371)))
  (let ((let561 mul_n26))
  (let ((let562 (ff.mul let561 let340)))
  (let ((let563 (= let562 let558)))
  (let ((let564 mul_n25))
  (let ((let565 (ff.mul let564 let539)))
  (let ((let566 (= let565 let561)))
  (let ((let567 mul_n24))
  (let ((let568 (ff.mul let567 let520)))
  (let ((let569 (= let568 let564)))
  (let ((let570 (ff.mul let457 let2)))
  (let ((let571 (ff.add let570 let13)))
  (let ((let572 mul_n23))
  (let ((let573 (ff.mul let572 let571)))
  (let ((let574 (= let573 let567)))
  (let ((let575 mul_n22))
  (let ((let576 (ff.mul let575 let428)))
  (let ((let577 (= let576 let572)))
  (let ((let578 mul_n21))
  (let ((let579 (ff.mul let578 let475)))
  (let ((let580 (= let579 let575)))
  (let ((let581 d_n3))
  (let ((let582 mul_n20))
  (let ((let583 (ff.mul let582 let581)))
  (let ((let584 (= let583 let578)))
  (let ((let585 mul_n19))
  (let ((let586 (ff.mul let585 let451)))
  (let ((let587 (= let586 let582)))
  (let ((let588 mul_n18))
  (let ((let589 (ff.mul let588 let470)))
  (let ((let590 (= let589 let585)))
  (let ((let591 (ff.mul let467 let2)))
  (let ((let592 (ff.add let591 let13)))
  (let ((let593 (ff.mul let592 let340)))
  (let ((let594 (= let593 let588)))
  (let ((let595 (ff.mul let555 let453)))
  (let ((let596 (= let595 let413)))
  (let ((let597 (ff.mul let571 let467)))
  (let ((let598 (= let597 let483)))
  (let ((let599 (ff.mul let581 let2)))
  (let ((let600 (ff.add let599 let13)))
  (let ((let601 (ff.mul let539 let600)))
  (let ((let602 (= let601 let467)))
  (let ((let603 mul_n13))
  (let ((let604 (ff.mul let603 let470)))
  (let ((let605 (= let604 let457)))
  (let ((let606 mul_n12))
  (let ((let607 (ff.mul let606 let477)))
  (let ((let608 (= let607 let603)))
  (let ((let609 (ff.mul let520 let2)))
  (let ((let610 (ff.add let609 let13)))
  (let ((let611 (ff.mul let610 let466)))
  (let ((let612 (= let611 let606)))
  (let ((let613 mul_n11))
  (let ((let614 mul_n10))
  (let ((let615 (ff.add let405 let614 let599)))
  (let ((let616 (ff.mul let615 let352)))
  (let ((let617 (= let616 let613)))
  (let ((let618 (ff.mul let581 let79)))
  (let ((let619 (ff.mul let618 let446)))
  (let ((let620 (= let619 let614)))
  (let ((let621 (ff.mul let581 let451)))
  (let ((let622 (= let621 let405)))
  (let ((let623 (and let622 let620 let617 let612 let608 let605 let602 let598 let596 let594 let590 let587 let584 let580 let577 let574 let569 let566 let563 let560 let557 let553 let550 let548 let544 let538 let534 let532 let529 let526 let523 let519 let516 let512 let509 let506 let503 let498 let496 let493 let490 let486 let482 let479 let474 let469 let464 let460 let456 let450 let444 let440 let437 let434 let431 let427 let423 let419 let415 let412 let407 let401 let396 let390 let386 let381 let378 let375 let370 let361 let355 let351 let347 let339 let333 let325 let321)))
  (let ((let624 return_n0_alt))
  (let ((let625 return_n0))
  (let ((let626 (= let625 let624)))
  (let ((let627 (not let626)))
  (let ((let628 (= let428 let117)))
  (let ((let629 (= let352 let40)))
  (let ((let630 (= let581 let271)))
  (let ((let631 (= let539 let229)))
  (let ((let632 (= let451 let141)))
  (let ((let633 (= let520 let210)))
  (let ((let634 (= let340 let28)))
  (let ((let635 (= let475 let165)))
  (let ((let636 (and let635 let634 let633 let632 let631 let630 let629 let628)))
  (let ((let637 (and let636 let627 let623 let313)))
  let637
))))))))))))))))))))))))))))))))))))))))))))))))))))))))))))))))))))))))))))))))))))))))))))))))))))))))))))))))))))))))))))))))))))))))))))))))))))))))))))))))))))))))))))))))))))))))))))))))))))))))))))))))))))))))))))))))))))))))))))))))))))))))))))))))))))))))))))))))))))))))))))))))))))))))))))))))))))))))))))))))))))))))))))))))))))))))))))))))))))))))))))))))))))))))))))))))))))))))))))))))))))))))))))))))))))))))))))))))))))))))))))))))))))))))))))))))))))))))))))))))))))))))))))))))))))))))))))))))))))))))))))))))))))))))))))))))))))))))))))))))))))))))))))))))))))))))))))))))))))))))))))))))))))))))))))))))))))))))))))))
)
(check-sat)
